Optimal - objective value 270.00000000
     30 z_0_1_2_8                 1                       0
     39 z_0_1_3_6                 1         -6.15384615384615
     57 z_0_2_0_2                 1         2.85714285714286
     68 z_0_2_1_2                 1         -1.42857142857143
     77 z_0_2_2_0                 1                       0
    128 z_0_7_1_10                1                       0
    151 z_0_7_4_6                 1                       0
    159 z_0_9_0_3                 1                       0
    179 z_0_9_2_4                 1                       0
    188 z_0_9_3_2                 1                       0
    202 z_0_9_4_5                 1                       0
    214 z_1_3_0_6                 1                      -5
    256 z_1_3_4_7                 1                       0
    298 z_1_6_3_8                 1                       0
    311 z_1_6_4_10                1                       0
    327 z_1_7_1_7                 1                       0
    350 z_1_7_4_3                 1                       0
    372 z_1_8_1_3                 1                      -5
    395 z_1_8_3_4                 1                      -5
    418 z_2_0_0_5                 1                    -2.5
    444 z_2_0_2_9                 1                      -5
    448 z_2_0_3_2                 1                     2.5
    464 z_2_2_0_1                 1                       0
    477 z_2_2_1_3                 1         1.42857142857143
    492 z_2_2_2_7                 1         2.85714285714286
    526 z_2_3_0_8                 1                       0
    568 z_2_3_4_9                 1                       0
    594 z_2_6_2_5                 1                    -2.5
    600 z_2_6_3_0                 1                    -2.5
    617 z_2_6_4_6                 1                      -5
    629 z_3_0_0_7                 1                       5
    646 z_3_0_2_2                 1                       0
    672 z_3_2_0_0                 1         -0.714285714285714
    689 z_3_2_1_6                 1                       0
    699 z_3_2_2_5                 1         2.14285714285714
    746 z_3_4_2_3                 1                     2.5
    769 z_3_4_4_6                 1                       0
    810 z_3_9_3_6                 1                       0
    823 z_3_9_4_8                 1                       0
    848 z_4_1_2_0                 1         -3.07692307692308
    863 z_4_1_3_4                 1         2.69230769230769
    884 z_4_2_0_3                 1         -1.42857142857143
    902 z_4_2_1_10                1         5.71428571428571
    956 z_4_6_2_1                 1                       0
    967 z_4_6_3_1                 1                       0
    980 z_4_6_4_3                 1                       0
    999 z_4_7_1_3                 1                       0
   1025 z_4_7_4_2                 1                       0
   1036 z_4_9_0_2                 1                       0
   1056 z_4_9_2_3                 1                       0
   1069 z_4_9_3_5                 1                       0
   1104 z_5_4_2_2                 1                       0
   1131 z_5_4_4_9                 1                       5
   1156 z_5_6_2_4                 1                       0
   1173 z_5_6_3_10                1                       5
   1176 z_5_6_4_2                 1                       0
   1203 z_5_8_1_7                 1                       0
   1221 z_5_8_3_3                 1                       0
   1245 z_5_9_0_5                 1                       0
   1265 z_5_9_2_6                 1                       0
   1319 z_5_10_2_5                1                       0
   1340 z_5_10_4_6                1                       0
   1345 z_6_0_0_0                 1                       0
   1372 z_6_0_2_5                 1                       0
   1379 z_6_0_3_1                 1                       0
   1405 z_6_2_0_10                1         -1.42857142857143
   1426 z_6_2_2_9                 1                       0
   1470 z_6_5_1_9                 1                       0
   1478 z_6_5_2_6                 1                       0
   1524 z_6_9_2_2                 1                       0
   1542 z_6_9_3_9                 1                       0
   1544 z_6_9_4_0                 1                       0
   1581 z_7_1_2_4                 1                     2.5
   1593 z_7_1_3_5                 1                       0
   1632 z_7_4_2_6                 1                       0
   1648 z_7_4_4_2                 1                    -2.5
   1678 z_7_8_1_10                1                       0
   1697 z_7_8_3_7                 1                       0
   1716 z_7_9_0_4                 1                     2.5
   1754 z_7_9_4_1                 1                       0
   1789 z_7_10_2_3                1                   -1.25
   1810 z_7_10_4_4                1                   -1.25
   1826 z_8_0_0_9                 1                       0
   1850 z_8_0_3_0                 1                       0
   1890 z_8_1_2_1                 1         -0.384615384615385
   1908 z_8_1_3_8                 1         3.46153846153846
   1949 z_8_6_2_8                 1                       0
   1980 z_8_9_0_6                 1                       0
   1998 z_8_9_2_5                 1                       0
   2019 z_8_9_4_4                 1                       0
   2052 z_8_10_2_4                1                       5
   2076 z_8_10_4_8                1                       0
   2079 w_0_0                     1                       5
   2081 w_0_2                     1                      10
   2082 w_0_3                     1                      10
   2086 w_1_2                     1                      10
   2087 w_1_3                     1                       0
   2089 w_2_0                     1         5.71428571428572
   2090 w_2_1                     1                       0
   2091 w_2_2                     1                       0
   2094 w_3_0                     1                      10
   2098 w_3_4                     1                       0
   2101 w_4_2                     1                      10
   2103 w_4_4                     1                       0
   2105 w_5_1                     1                      10
   2106 w_5_2                     1                      10
   2111 w_6_2                     1                      10
   2112 w_6_3                     1                       0
   2113 w_6_4                     1                       5
   2115 w_7_1                     1                      10
   2118 w_7_4                     1                      10
   2120 w_8_1                     1                      10
   2122 w_8_3                     1                      10
   2124 w_9_0                     1                      10
   2126 w_9_2                     1                      10
   2127 w_9_3                     1                      10
   2128 w_9_4                     1                      10
   2131 w_10_2                    1                      10
   2133 w_10_4                    1                       0
   2134 o_0_0_0                   1                       0
   2135 o_0_0_1                   1                       0
   2136 o_0_0_2                   1                       0
   2137 o_0_0_3                   1                       0
   2138 o_0_0_4     1.00000000000035                       0
   2139 o_0_0_5     1.00000000000035                       0
   2148 o_0_2_2                   1                       0
   2149 o_0_2_3                   1                       0
   2150 o_0_2_4                   1                       0
   2151 o_0_2_5                   1                       0
   2153 o_0_3_1                   1                       0
   2154 o_0_3_2      0.999999999999                       0
   2155 o_0_3_3                   1                       0
   2176 o_1_2_0                   1                       0
   2177 o_1_2_1                   1                       0
   2178 o_1_2_2                   1                       0
   2179 o_1_2_3                   1                       0
   2180 o_1_2_4                   1                       0
   2182 o_1_3_0                   1                       0
   2183 o_1_3_1                   1                       0
   2184 o_1_3_2                   1                       0
   2185 o_1_3_3                   1                       0
   2186 o_1_3_4                   1                       0
   2187 o_1_3_5     1.00000000000031                       0
   2194 o_2_0_0                   1                       0
   2195 o_2_0_1                   1                       0
   2196 o_2_0_2                   1                       0
   2197 o_2_0_3                   1                       0
   2198 o_2_0_4                   1                       0
   2199 o_2_0_5                   1                       0
   2200 o_2_1_0                   1                       0
   2201 o_2_1_1                   1                       0
   2202 o_2_1_2                   1                       0
   2203 o_2_1_3      1.000000000005                       0
   2204 o_2_1_4                   1                       0
   2205 o_2_1_5                   1                       0
   2206 o_2_2_0     0.99999999999775                       0
   2207 o_2_2_1     0.99999999999775                       0
   2208 o_2_2_2     0.99999999999775                       0
   2209 o_2_2_3     0.99999999999775                       0
   2210 o_2_2_4     0.9999999999955                       0
   2211 o_2_2_5     0.99999999999775                       0
   2224 o_3_0_0                   1                       0
   2225 o_3_0_1                   1                       0
   2226 o_3_0_2                   1                       0
   2227 o_3_0_3                   1                       0
   2249 o_3_4_1                   1                       0
   2250 o_3_4_2     0.999999999999031                       0
   2251 o_3_4_3                   1                       0
   2252 o_3_4_4     1.00000000000097                       0
   2266 o_4_2_0                   1                       0
   2267 o_4_2_1                   1                       0
   2268 o_4_2_2                   1                       0
   2269 o_4_2_3                   1                    -2.5
   2278 o_4_4_0     1.00000000000025                       0
   2279 o_4_4_1                   1                       0
   2280 o_4_4_2     0.999999999999748                       0
   2281 o_4_4_3                   1                       0
   2282 o_4_4_4                   1                       0
   2293 o_5_1_3                   1                       0
   2294 o_5_1_4                   1                       0
   2296 o_5_2_0                   1                       0
   2297 o_5_2_1                   1                       0
   2327 o_6_2_1      1.000000000001                       0
   2328 o_6_2_2     0.9999999999995                       0
   2329 o_6_2_3                   1                       0
   2330 o_6_2_4                   1                       0
   2331 o_6_2_5                   1                       0
   2332 o_6_3_0                   1                       0
   2333 o_6_3_1     1.00000000000015                       0
   2334 o_6_3_2     1.00000000000074                       0
   2335 o_6_3_3     1.00000000000058                       0
   2336 o_6_3_4     0.999999999999108                       0
   2337 o_6_3_5     0.999999999999415                       0
   2338 o_6_4_0     1.0000000000005                       0
   2339 o_6_4_1     1.0000000000005                       0
   2340 o_6_4_2                   1                       0
   2341 o_6_4_3      1.000000000001                       0
   2342 o_6_4_4      1.000000000002                       0
   2343 o_6_4_5                   1                       0
   2351 o_7_1_1      1.000000000001                       0
   2352 o_7_1_2                   1                       0
   2353 o_7_1_3      1.000000000002                       0
   2354 o_7_1_4      0.999999999999                       0
   2355 o_7_1_5                   1                       0
   2368 o_7_4_0                   1                       0
   2369 o_7_4_1                   1                       0
   2370 o_7_4_2                   1                       0
   2371 o_7_4_3                   1                       0
   2381 o_8_1_1                   1                       0
   2382 o_8_1_2      1.000000000002                       0
   2383 o_8_1_3                   1                       0
   2384 o_8_1_4                   1                       0
   2385 o_8_1_5                   1                       0
   2393 o_8_3_1      1.000000000001                       0
   2394 o_8_3_2      1.000000000001                       0
   2395 o_8_3_3      1.000000000001                       0
   2396 o_8_3_4      1.000000000002                       0
   2404 o_9_0_0                   1                       0
   2405 o_9_0_1                   1                       0
   2406 o_9_0_2                   1                       0
   2407 o_9_0_3                   1                       0
   2408 o_9_0_4                   1                       0
   2409 o_9_0_5     1.0000000000005                       0
   2416 o_9_2_0                   1                       0
   2417 o_9_2_1      1.000000000001                       0
   2418 o_9_2_2                   1                       0
   2419 o_9_2_3                   1                       0
   2420 o_9_2_4                   1                       0
   2421 o_9_2_5                   1                       0
   2422 o_9_3_0      1.000000000001                       0
   2423 o_9_3_1                   1                       0
   2424 o_9_3_2      1.000000000006                       0
   2425 o_9_3_3      1.000000000001                       0
   2426 o_9_3_4                   1                       0
   2427 o_9_3_5                   1                       0
   2428 o_9_4_0                   1                       0
   2429 o_9_4_1      1.000000000001                       0
   2430 o_9_4_2                   1                       0
   2431 o_9_4_3      1.000000000001                       0
   2432 o_9_4_4                   1                       0
   2433 o_9_4_5                   1                       0
   2449 o_10_2_3     1.000000000003                       0
   2450 o_10_2_4     1.000000000001                       0
   2451 o_10_2_5                  1                       0
   2458 o_10_4_0     1.000000000004                       0
   2459 o_10_4_1     1.000000000003                       0
   2460 o_10_4_2     1.000000000001                       0
   2461 o_10_4_3                  1                       0
   2462 o_10_4_4                  1                       0
   2466 e_0_0_2                   1                       0
   2467 e_0_0_3                   1                       0
   2472 e_0_1_2                   1                       0
   2474 e_0_1_4                   1                       0
   2475 e_0_1_5                   1                       0
   2476 e_0_2_0                   1                       0
   2478 e_0_2_2                   1                       0
   2479 e_0_2_3                   1                       0
   2480 e_0_2_4                   1                       0
   2482 e_0_3_0                   1                       0
   2483 e_0_3_1                   1                       0
   2484 e_0_3_2                   1                       0
   2488 e_0_4_0                   1                       0
   2489 e_0_4_1                   1                       0
   2493 e_0_4_5                   1                       0
   2494 e_1_0_0                   1                       0
   2495 e_1_0_1                   1                       0
   2501 e_1_1_1                   1                       0
   2502 e_1_1_2                   1                       0
   2503 e_1_1_3                   1                       0
   2514 e_1_3_2                   1                       0
   2515 e_1_3_3                   1                       0
   2516 e_1_3_4                   1                       0
   2519 e_1_4_1                   1                       0
   2520 e_1_4_2                   1                       0
   2521 e_1_4_3                   1                       0
   2522 e_1_4_4                   1                       0
   2523 e_1_4_5                   1                       0
   2525 e_2_0_1     0.999999999999415                       0
   2526 e_2_0_2                   1                       0
   2527 e_2_0_3                   1                       0
   2529 e_2_0_5                   1                       0
   2533 e_2_1_3                   1                       0
   2537 e_2_2_1                   1                       0
   2538 e_2_2_2                   1                       0
   2539 e_2_2_3                   1                       0
   2540 e_2_2_4                   1                       0
   2541 e_2_2_5                   1                       0
   2542 e_2_3_0                   1                       0
   2545 e_2_3_3                   1                       0
   2548 e_2_4_0                   1                       0
   2549 e_2_4_1                   1                       0
   2551 e_2_4_3                   1                       0
   2552 e_2_4_4                   1                       0
   2554 e_3_0_0                   1                       0
   2555 e_3_0_1                   1                       0
   2556 e_3_0_2                   1                       0
   2560 e_3_1_0                   1                       0
   2561 e_3_1_1                   1                       0
   2568 e_3_2_2                   1                       0
   2569 e_3_2_3                   1                       0
   2571 e_3_2_5                   1                       0
   2572 e_3_3_0                   1                       0
   2573 e_3_3_1                   1                       0
   2578 e_3_4_0                   1                       0
   2579 e_3_4_1                   1                       0
   2580 e_3_4_2                   1                       0
   2581 e_3_4_3                   1                       0
   2586 e_4_0_2                   1                       0
   2587 e_4_0_3                   1                       0
   2593 e_4_1_3                   1                       0
   2594 e_4_1_4                   1                       0
   2595 e_4_1_5                   1                       0
   2596 e_4_2_0                   1                       0
   2597 e_4_2_1                   1                       0
   2599 e_4_2_3                   1                       0
   2603 e_4_3_1                   1                       0
   2606 e_4_3_4                   1                       0
   2607 e_4_3_5                   1                       0
   2610 e_4_4_2                   1                       0
   2611 e_4_4_3                   1                       0
   2619 e_5_0_5                   1                       0
   2621 e_5_1_1      0.999999999999                       0
   2622 e_5_1_2                   1                       0
   2626 e_5_2_0                   1                       0
   2627 e_5_2_1                   1                       0
   2628 e_5_2_2                   1                       0
   2630 e_5_2_4                   1                       0
   2631 e_5_2_5                   1                       0
   2635 e_5_3_3                   1                       0
   2636 e_5_3_4                   1                       0
   2637 e_5_3_5                   1                       0
   2638 e_5_4_0                   1                       0
   2639 e_5_4_1                   1                       0
   2640 e_5_4_2                   1                       0
   2641 e_5_4_3                   1                       0
   2642 e_5_4_4                   1                       0
   2644 e_6_0_0                   1                       0
   2648 e_6_0_4                   1                       0
   2649 e_6_0_5                   1                       0
   2653 e_6_1_3      1.000000000005                       0
   2654 e_6_1_4                   1                       0
   2656 e_6_2_0                   1                       0
   2657 e_6_2_1     0.99999999999775                       0
   2658 e_6_2_2     0.99999999999775                       0
   2659 e_6_2_3                   1                       0
   2660 e_6_2_4                   1                       0
   2661 e_6_2_5                   1                       0
   2664 e_6_3_2                   1                       0
   2665 e_6_3_3                   1                       0
   2666 e_6_3_4                   1                       0
   2668 e_6_4_0                   1                       0
   2678 e_7_0_4                   1                    -2.5
   2684 e_7_1_4                   1                       0
   2685 e_7_1_5                   1                       0
   2686 e_7_2_0                   1                       0
   2687 e_7_2_1                   1                      -5
   2689 e_7_2_3                   1                       0
   2690 e_7_2_4                   1                    -2.5
   2693 e_7_3_1                   1                       0
   2694 e_7_3_2                   1                       0
   2697 e_7_3_5                   1                       0
   2699 e_7_4_1                   1                       0
   2700 e_7_4_2                   1                       0
   2702 e_7_4_4                   1                       0
   2704 e_8_0_0                   1                       0
   2705 e_8_0_1                   1                       0
   2707 e_8_0_3                   1                       0
   2708 e_8_0_4                   1                       0
   2717 e_8_2_1                   1                       0
   2718 e_8_2_2                   1                       0
   2719 e_8_2_3                   1                       0
   2720 e_8_2_4                   1                       0
   2721 e_8_2_5                   1                       0
   2723 e_8_3_1                   1                       0
   2724 e_8_3_2     1.00000000000015                       0
   2725 e_8_3_3     1.00000000000031                       0
   2730 e_8_4_2     0.999999999999538                       0
   2731 e_8_4_3     0.999999999999538                       0
   2732 e_8_4_4                   1                       0
   2735 af_0_0_0                  1                       0
   2736 bf_0_0_1                  1                       0
   2737 af_0_0_1                  1                       0
   2738 bf_0_0_2                  1                       0
   2739 af_0_0_2                  1                       0
   2740 bf_0_0_3                  1                       0
   2741 af_0_0_3                  1                       0
   2742 bf_0_0_4                  1                       0
   2743 af_0_0_4    1.00000000000035                       0
   2744 bf_0_0_5                  1                       0
   2759 af_0_2_0                  1                       0
   2761 af_0_2_1                  1                       0
   2762 bf_0_2_2     0.999999999999                       0
   2763 af_0_2_2                  1                       0
   2764 bf_0_2_3     0.999999999999                       0
   2765 af_0_2_3                  1                       0
   2766 bf_0_2_4     0.999999999999                       0
   2767 af_0_2_4                  1                       0
   2768 bf_0_2_5     0.999999999999                       0
   2771 af_0_3_0                  1                       0
   2773 af_0_3_1                  1                       0
   2774 bf_0_3_2                  1                       0
   2775 af_0_3_2                  1                    -2.5
   2776 bf_0_3_3     0.999999999999                       0
   2778 bf_0_3_4     0.999999999999                       0
   2780 bf_0_3_5                  1                       0
   2819 af_1_2_0                  1                       0
   2820 bf_1_2_1                  1                       0
   2821 af_1_2_1                  1                       0
   2822 bf_1_2_2                  1                       0
   2823 af_1_2_2                  1                       0
   2824 bf_1_2_3                  1                       0
   2825 af_1_2_3                  1                       0
   2826 bf_1_2_4                  1                       0
   2828 bf_1_2_5                  1                       0
   2831 af_1_3_0                  1                       0
   2832 bf_1_3_1                  1                       0
   2833 af_1_3_1                  1                       0
   2834 bf_1_3_2     0.999999999999                       0
   2835 af_1_3_2                  1                       0
   2836 bf_1_3_3                  1                       0
   2837 af_1_3_3                  1                       0
   2838 bf_1_3_4                  1                       0
   2839 af_1_3_4                  1                       0
   2840 bf_1_3_5                  1                       0
   2855 af_2_0_0                  1                       0
   2856 bf_2_0_1                  1                       0
   2857 af_2_0_1                  1                       0
   2858 bf_2_0_2     0.999999999999                       0
   2859 af_2_0_2                  1                       0
   2860 bf_2_0_3                  1                       0
   2861 af_2_0_3                  1                       0
   2862 bf_2_0_4                  1                       0
   2863 af_2_0_4                  1                       0
   2864 bf_2_0_5                  1                       0
   2867 af_2_1_0                  1         -1.42857142857143
   2868 bf_2_1_1                  1                       0
   2869 af_2_1_1     1.000000000001                       0
   2870 bf_2_1_2     0.999999999999                       0
   2871 af_2_1_2     1.000000000003                       0
   2872 bf_2_1_3                  1                       0
   2873 af_2_1_3                  1                       0
   2874 bf_2_1_4     1.000000000004                       0
   2875 af_2_1_4                  1                       0
   2876 bf_2_1_5     1.000000000002                       0
   2879 af_2_2_0                  1                       0
   2880 bf_2_2_1                  1                       0
   2881 af_2_2_1    0.99999999999775                       0
   2882 bf_2_2_2     0.999999999999                       0
   2883 af_2_2_2    0.99999999999775                       0
   2884 bf_2_2_3    0.99999999999775                       0
   2885 af_2_2_3    0.9999999999955                       0
   2886 bf_2_2_4    0.999999999997749                       0
   2887 af_2_2_4    0.99999999999775                       0
   2888 bf_2_2_5                  1                       0
   2915 af_3_0_0                  1                       0
   2916 bf_3_0_1                  1                       0
   2917 af_3_0_1                  1                       0
   2918 bf_3_0_2                  1                       0
   2919 af_3_0_2                  1                       0
   2920 bf_3_0_3                  1                       0
   2922 bf_3_0_4     0.999999999999                       0
   2924 bf_3_0_5                  1                       0
   2963 af_3_4_0                  1                       0
   2965 af_3_4_1                  1                       0
   2966 bf_3_4_2                  1                       0
   2967 af_3_4_2                  1                       0
   2968 bf_3_4_3    0.999999999999031                       0
   2969 af_3_4_3                  1                       0
   2970 bf_3_4_4                  1                       0
   2972 bf_3_4_5    1.00000000000097                       0
   2999 af_4_2_0                  1                       0
   3000 bf_4_2_1                  1                       0
   3001 af_4_2_1                  1                       0
   3002 bf_4_2_2     0.999999999999                       0
   3003 af_4_2_2     1.000000000001                       0
   3004 bf_4_2_3     0.999999999999                       0
   3006 bf_4_2_4     1.000000000001                       0
   3008 bf_4_2_5                  1                       0
   3023 af_4_4_0                  1                       0
   3024 bf_4_4_1     1.000000000001                       0
   3025 af_4_4_1                  1                       0
   3026 bf_4_4_2                  1                       0
   3027 af_4_4_2     0.999999999999                       0
   3028 bf_4_4_3    0.999999999999748                       0
   3029 af_4_4_3                  1                       0
   3030 bf_4_4_4                  1                       0
   3032 bf_4_4_5                  1                       0
   3047 af_5_1_0                  1                       0
   3049 af_5_1_1     0.999999999999                       0
   3051 af_5_1_2                  1                       0
   3053 af_5_1_3                  1                       0
   3054 bf_5_1_4     1.000000000001                       0
   3056 bf_5_1_5                  1                       0
   3059 af_5_2_0                  1                       0
   3060 bf_5_2_1                  1                       0
   3062 bf_5_2_2                  1                       0
   3064 bf_5_2_3     1.000000000002                       0
   3066 bf_5_2_4     1.000000000001                       0
   3068 bf_5_2_5                  1                       0
   3092 bf_5_4_5                  1                       0
   3119 af_6_2_0                  1                       0
   3121 af_6_2_1    0.9999999999995                       0
   3122 bf_6_2_2                  1                       0
   3123 af_6_2_2                  1                       0
   3124 bf_6_2_3                  1                       0
   3125 af_6_2_3                  1                       0
   3126 bf_6_2_4     0.999999999999                       0
   3127 af_6_2_4                  1                       0
   3128 bf_6_2_5                  1                       0
   3131 af_6_3_0                  1                       0
   3132 bf_6_3_1                  1                       0
   3133 af_6_3_1     1.000000000001                       0
   3134 bf_6_3_2                  1                       0
   3135 af_6_3_2                  1                       0
   3136 bf_6_3_3    1.00000000000074                       0
   3137 af_6_3_3                  1                       0
   3138 bf_6_3_4    1.00000000000058                       0
   3139 af_6_3_4                  1                       0
   3140 bf_6_3_5                  1                       0
   3143 af_6_4_0                  1                       0
   3144 bf_6_4_1                  1                       0
   3145 af_6_4_1     0.999999999999                       0
   3146 bf_6_4_2     0.999999999999                       0
   3147 af_6_4_2     1.000000000001                       0
   3148 bf_6_4_3     0.999999999999                       0
   3149 af_6_4_3     1.000000000002                       0
   3150 bf_6_4_4                  1                       0
   3151 af_6_4_4                  1                       0
   3152 bf_6_4_5                  1                       0
   3167 af_7_1_0     1.000000000001                       0
   3169 af_7_1_1     0.999999999999                       0
   3170 bf_7_1_2                  1                       0
   3171 af_7_1_2                  1                       0
   3172 bf_7_1_3                  1                       0
   3173 af_7_1_3     1.000000000001                       0
   3174 bf_7_1_4     1.000000000001                       0
   3175 af_7_1_4     1.000000000002                       0
   3176 bf_7_1_5     0.999999999999                       0
   3203 af_7_4_0                  1                       0
   3204 bf_7_4_1                  1                       0
   3205 af_7_4_1     1.000000000002                       0
   3206 bf_7_4_2     0.999999999999                       0
   3207 af_7_4_2                  1                       0
   3208 bf_7_4_3                  1                       0
   3210 bf_7_4_4                  1                       0
   3212 bf_7_4_5     0.999999999998                       0
   3227 af_8_1_0     1.000000000001                       0
   3229 af_8_1_1     1.000000000002                       0
   3230 bf_8_1_2                  1                       0
   3231 af_8_1_2     0.999999999999                       0
   3232 bf_8_1_3     1.000000000002                       0
   3233 af_8_1_3                  1                       0
   3234 bf_8_1_4                  1                       0
   3235 af_8_1_4                  1                       0
   3236 bf_8_1_5                  1                       0
   3251 af_8_3_0                  1                       0
   3253 af_8_3_1     0.999999999999                       0
   3254 bf_8_3_2     1.000000000001                       0
   3255 af_8_3_2     0.999999999999                       0
   3256 bf_8_3_3                  1                       0
   3257 af_8_3_3                  1                       0
   3258 bf_8_3_4                  1                       0
   3260 bf_8_3_5     1.000000000001                       0
   3275 af_9_0_0     0.999999999999                       0
   3276 bf_9_0_1     1.000000000001                       0
   3277 af_9_0_1                  1                       0
   3278 bf_9_0_2                  1                       0
   3279 af_9_0_2     0.999999999999                       0
   3280 bf_9_0_3     0.999999999999                       0
   3281 af_9_0_3                  1                       0
   3282 bf_9_0_4                  1                       0
   3283 af_9_0_4                  1                       0
   3284 bf_9_0_5     0.999999999999                       0
   3299 af_9_2_0     0.999999999999                       0
   3300 bf_9_2_1     1.000000000001                       0
   3301 af_9_2_1     0.999999999999                       0
   3302 bf_9_2_2                  1                       0
   3303 af_9_2_2                  1                       0
   3304 bf_9_2_3                  1                       0
   3305 af_9_2_3                  1                       0
   3306 bf_9_2_4                  1                       0
   3307 af_9_2_4                  1                       0
   3308 bf_9_2_5     0.999999999999                       0
   3311 af_9_3_0     1.000000000001                       0
   3312 bf_9_3_1                  1                       0
   3313 af_9_3_1     1.000000000003                       0
   3314 bf_9_3_2                  1                       0
   3315 af_9_3_2     1.000000000004                       0
   3316 bf_9_3_3     1.000000000002                       0
   3317 af_9_3_3                  1                       0
   3318 bf_9_3_4                  1                       0
   3319 af_9_3_4     1.000000000002                       0
   3320 bf_9_3_5     0.999999999995                       0
   3323 af_9_4_0     0.999999999999                       0
   3324 bf_9_4_1     1.000000000001                       0
   3325 af_9_4_1     0.999999999999                       0
   3326 bf_9_4_2                  1                       0
   3327 af_9_4_2     0.999999999999                       0
   3328 bf_9_4_3                  1                       0
   3329 af_9_4_3                  1                       0
   3330 bf_9_4_4                  1                       0
   3331 af_9_4_4     1.000000000001                       0
   3332 bf_9_4_5                  1                       0
   3359 af_10_2_0    1.000000000001                       0
   3361 af_10_2_1    1.000000000002                       0
   3363 af_10_2_2    1.000000000003                       0
   3365 af_10_2_3                 1                       0
   3366 bf_10_2_4    1.000000000002                       0
   3367 af_10_2_4    1.000000000001                       0
   3368 bf_10_2_5                 1                       0
   3383 af_10_4_0                 1                       0
   3384 bf_10_4_1    1.000000000003                       0
   3385 af_10_4_1    1.000000000001                       0
   3386 bf_10_4_2    1.000000000002                       0
   3387 af_10_4_2    0.999999999999                       0
   3388 bf_10_4_3                 1                       0
   3389 af_10_4_3                 1                       0
   3390 bf_10_4_4                 1                       0
   3392 bf_10_4_5                 1                       0
